19
1
11
2
15
9
7
7
15
4
2
1
14
5
5
5
3
6
4
4
3
3
2
12
3
9
10
3
14
8
6
5
5
7
13
1
2
14
2
1
4
8
5
15
13
12
6
6
6
8
16
8
7
10
9
4
10
2
16
10
11
12
13
1
7
2
11
11
7
15
11
17
13
1
9
3
6
16
18
8
2
12
10
11
13
16
17
12
14
7
17
1
18
9
17
19
1
11
15
8
18
